Traveling Salesman Problem/TSP_generados/Aleatorio1621103328_10.tsp
NAME: Aleatorio1621103328_10.tsp
COMMENT: Randomly generated scenario
TYPE: TSP
DIMENSION: 10
EDGE_WEIGHT_TYPE: ATT
NODE_COORD_SECTION
1 14.46 2.54
2 23.78 20.28
3 34.3 24.89
4 36.06 6.76
5 38.38 35.18
6 23.94 10.52
7 31.32 49.28
8 14.11 46.23
9 33.76 9.13
10 41.71 27.81
