Traveling Salesman Problem/TSP_generados/Aleatorio1621103328_10.opt.tour
NAME: Aleatorio1621103328_10.opt.tour
COMMENT: Optimal solution for Aleatorio1621103328_10 (140.2251095014093)
TYPE: TOUR
DIMENSION: 10
TOUR_SECTION
1 4 9 3 10 5 7 8 2 6
-1
EOF
